certificates/rado_a5_c126_N25.cnf
c Rad2 upper bound instance: x1 + 5*x2 - x3 = 126, interval [1,25]
p cnf 25 140
1 2 25 0
-1 -2 -25 0
2 3 25 0
-2 -3 -25 0
3 4 25 0
-3 -4 -25 0
4 5 25 0
-4 -5 -25 0
5 6 25 0
-5 -6 -25 0
1 7 24 0
-1 -7 -24 0
6 7 25 0
-6 -7 -25 0
2 8 24 0
-2 -8 -24 0
7 8 25 0
-7 -8 -25 0
3 9 24 0
-3 -9 -24 0
8 9 25 0
-8 -9 -25 0
4 10 24 0
-4 -10 -24 0
9 10 25 0
-9 -10 -25 0
5 11 24 0
-5 -11 -24 0
10 11 25 0
-10 -11 -25 0
1 12 23 0
-1 -12 -23 0
6 12 24 0
-6 -12 -24 0
11 12 25 0
-11 -12 -25 0
2 13 23 0
-2 -13 -23 0
7 13 24 0
-7 -13 -24 0
12 13 25 0
-12 -13 -25 0
3 14 23 0
-3 -14 -23 0
8 14 24 0
-8 -14 -24 0
13 14 25 0
-13 -14 -25 0
4 15 23 0
-4 -15 -23 0
9 15 24 0
-9 -15 -24 0
14 15 25 0
-14 -15 -25 0
5 16 23 0
-5 -16 -23 0
10 16 24 0
-10 -16 -24 0
15 16 25 0
-15 -16 -25 0
1 17 22 0
-1 -17 -22 0
6 17 23 0
-6 -17 -23 0
11 17 24 0
-11 -17 -24 0
16 17 25 0
-16 -17 -25 0
2 18 22 0
-2 -18 -22 0
7 18 23 0
-7 -18 -23 0
12 18 24 0
-12 -18 -24 0
17 18 25 0
-17 -18 -25 0
3 19 22 0
-3 -19 -22 0
8 19 23 0
-8 -19 -23 0
13 19 24 0
-13 -19 -24 0
18 19 25 0
-18 -19 -25 0
4 20 22 0
-4 -20 -22 0
9 20 23 0
-9 -20 -23 0
14 20 24 0
-14 -20 -24 0
19 20 25 0
-19 -20 -25 0
5 21 22 0
-5 -21 -22 0
10 21 23 0
-10 -21 -23 0
15 21 24 0
-15 -21 -24 0
20 21 25 0
-20 -21 -25 0
1 21 22 0
-1 -21 -22 0
6 22 0
-6 -22 0
11 22 23 0
-11 -22 -23 0
16 22 24 0
-16 -22 -24 0
21 22 25 0
-21 -22 -25 0
2 21 23 0
-2 -21 -23 0
7 22 23 0
-7 -22 -23 0
12 23 0
-12 -23 0
17 23 24 0
-17 -23 -24 0
22 23 25 0
-22 -23 -25 0
3 21 24 0
-3 -21 -24 0
8 22 24 0
-8 -22 -24 0
13 23 24 0
-13 -23 -24 0
18 24 0
-18 -24 0
23 24 25 0
-23 -24 -25 0
4 21 25 0
-4 -21 -25 0
9 22 25 0
-9 -22 -25 0
14 23 25 0
-14 -23 -25 0
19 24 25 0
-19 -24 -25 0
24 25 0
-24 -25 0
