certificates/rado_a5_c126_N25.drat
-25 0
24 0
-18 0
17 0
19 0
-11 0
-23 0
-13 0
10 0
12 0
22 0
14 0
7 0
2 0
-4 0
-16 0
-6 0
-8 0
-1 0
-3 0
-20 0
0
